Traveling Salesman Problem/TSP_generados/Aleatorio1620396724_18.tsp
NAME: Aleatorio1620396724_18.tsp
COMMENT: Randomly generated scenario
TYPE: TSP
DIMENSION: 18
EDGE_WEIGHT_TYPE: ATT
NODE_COORD_SECTION
1 28.67 39.23
2 49.17 33.63
3 18.96 14.03
4 2.31 29.82
5 35.41 45.45
6 45.4 19.95
7 7.39 8.44
8 10.29 32.06
9 4.42 6.0
10 27.78 7.83
11 49.68 21.52
12 5.49 17.98
13 20.44 15.45
14 18.61 45.25
15 4.78 10.13
16 11.28 48.67
17 23.4 29.73
18 25.49 20.43
