Traveling Salesman Problem/TSP_generados/Aleatorio1620396724_18.opt.tour
NAME: Aleatorio1620396724_18.opt.tour
COMMENT: Optimal solution for Aleatorio1620396724_18 (188.43007589953177)
TYPE: TOUR
DIMENSION: 18
TOUR_SECTION
1 5 2 11 6 10 18 13 3 7 9 15 12 4 8 16 14 17
-1
EOF
